NAME          ClpDefau  FREE
ROWS
 N  OBJROW
 L  ZMUNI1_PCT
 L  ZMUNI2_PCT
 L  ZMUNI3_PCT
 L  ZMUNI4_PCT
 L  ZMUNI5_PCT
 L  ZMUNI6_PCT
 L  ZMUNI7_PCT
 L  ZMUNI8_PCT
 L  ZMUNI9_PCT
COLUMNS
    QMUNI1 OBJROW 1.          
    QMUNI1 ZMUNI1_PCT 28674.1257  
    QMUNI1 ZMUNI2_PCT 1798.6297   
    QMUNI1 ZMUNI3_PCT 4278.3737   
    QMUNI1 ZMUNI4_PCT 3102.63634  
    QMUNI1 ZMUNI5_PCT  -12.7792   
    QMUNI1 ZMUNI6_PCT 213.2415    
    QMUNI1 ZMUNI7_PCT 1683.6167   
    QMUNI1 ZMUNI8_PCT 1335.5256   
    QMUNI1 ZMUNI9_PCT 442.1234    
    QMUNI2 OBJROW 1.          
    QMUNI2 ZMUNI1_PCT 1643.7531   
    QMUNI2 ZMUNI2_PCT 33675.5752  
    QMUNI2 ZMUNI3_PCT 2453.2318   
    QMUNI2 ZMUNI4_PCT 2577.54326  
    QMUNI2 ZMUNI5_PCT  -201.9882  
    QMUNI2 ZMUNI6_PCT  -92.2203   
    QMUNI2 ZMUNI7_PCT 672.5311    
    QMUNI2 ZMUNI8_PCT 905.9906    
    QMUNI2 ZMUNI9_PCT 698.2804    
    QMUNI3 OBJROW 1.          
    QMUNI3 ZMUNI1_PCT 4022.5983   
    QMUNI3 ZMUNI2_PCT 2531.2423   
    QMUNI3 ZMUNI3_PCT 29965.5914  
    QMUNI3 ZMUNI4_PCT 4939.12697  
    QMUNI3 ZMUNI5_PCT  -521.4691  
    QMUNI3 ZMUNI6_PCT  -309.9442  
    QMUNI3 ZMUNI7_PCT 1074.791    
    QMUNI3 ZMUNI8_PCT 1071.167    
    QMUNI3 ZMUNI9_PCT 380.8975    
    QMUNI4 OBJROW 1.          
    QMUNI4 ZMUNI1_PCT 3141.5939   
    QMUNI4 ZMUNI2_PCT 2866.5542   
    QMUNI4 ZMUNI3_PCT 5332.7561   
    QMUNI4 ZMUNI4_PCT 104310.56023
    QMUNI4 ZMUNI5_PCT  -325.0122  
    QMUNI4 ZMUNI6_PCT  -163.4598  
    QMUNI4 ZMUNI7_PCT 833.1299    
    QMUNI4 ZMUNI8_PCT 842.2852    
    QMUNI4 ZMUNI9_PCT 308.7998    
    QMUNI5 OBJROW 1.          
    QMUNI5 ZMUNI1_PCT  -45.3949   
    QMUNI5 ZMUNI2_PCT  -139.0457  
    QMUNI5 ZMUNI3_PCT  -74.9588   
    QMUNI5 ZMUNI4_PCT  -73.24219  
    QMUNI5 ZMUNI5_PCT 33543.5868  
    QMUNI5 ZMUNI6_PCT 2117.4431   
    QMUNI5 ZMUNI7_PCT  -233.4595  
    QMUNI5 ZMUNI8_PCT  -312.0422  
    QMUNI5 ZMUNI9_PCT  -419.6167  
    QMUNI6 OBJROW 1.          
    QMUNI6 ZMUNI1_PCT 249.0997    
    QMUNI6 ZMUNI2_PCT 70.5719     
    QMUNI6 ZMUNI3_PCT 185.3943    
    QMUNI6 ZMUNI4_PCT 135.85091   
    QMUNI6 ZMUNI5_PCT 2397.9187   
    QMUNI6 ZMUNI6_PCT 31714.7255  
    QMUNI6 ZMUNI7_PCT 278.8544    
    QMUNI6 ZMUNI8_PCT 62.1796     
    QMUNI6 ZMUNI9_PCT  -104.5227  
    QMUNI7 OBJROW 1.          
    QMUNI7 ZMUNI1_PCT 1418.3044   
    QMUNI7 ZMUNI2_PCT 785.6369    
    QMUNI7 ZMUNI3_PCT 1244.3543   
    QMUNI7 ZMUNI4_PCT 942.75475   
    QMUNI7 ZMUNI5_PCT 6.2943      
    QMUNI7 ZMUNI6_PCT 250.6256    
    QMUNI7 ZMUNI7_PCT 29290.39    
    QMUNI7 ZMUNI8_PCT 2139.8545   
    QMUNI7 ZMUNI9_PCT 407.6004    
    QMUNI8 OBJROW 1.          
    QMUNI8 ZMUNI1_PCT 1334.3811   
    QMUNI8 ZMUNI2_PCT 1144.4092   
    QMUNI8 ZMUNI3_PCT 1364.1358   
    QMUNI8 ZMUNI4_PCT 1091.95709  
    QMUNI8 ZMUNI5_PCT 87.1659     
    QMUNI8 ZMUNI6_PCT 218.296     
    QMUNI8 ZMUNI7_PCT 2402.3056   
    QMUNI8 ZMUNI8_PCT 27816.7725  
    QMUNI8 ZMUNI9_PCT 1299.2859   
    QMUNI9 OBJROW 1.          
    QMUNI9 ZMUNI1_PCT 428.5812    
    QMUNI9 ZMUNI2_PCT 711.6318    
    QMUNI9 ZMUNI3_PCT 533.8669    
    QMUNI9 ZMUNI4_PCT 482.60689   
    QMUNI9 ZMUNI5_PCT  -492.6681  
    QMUNI9 ZMUNI6_PCT  -379.7531  
    QMUNI9 ZMUNI7_PCT 183.1055    
    QMUNI9 ZMUNI8_PCT 739.0976    
    QMUNI9 ZMUNI9_PCT 25641.2506  
RHS
    RHS ZMUNI1_PCT 1.6405164738
    RHS ZMUNI2_PCT 0.4742275879
    RHS ZMUNI3_PCT 0.3382167814
    RHS ZMUNI4_PCT  -0.90616693
    RHS ZMUNI5_PCT -0.067548377
    RHS ZMUNI6_PCT 0.5876398158
    RHS ZMUNI7_PCT  -0.65761103
    RHS ZMUNI8_PCT  -0.75747166
    RHS ZMUNI9_PCT  -0.58629986
BOUNDS
 LO BOUND QMUNI1 -0.000905159
 UP BOUND QMUNI1      1.1e+10
 LO BOUND QMUNI2 -0.000649571
 UP BOUND QMUNI2      1.1e+10
 LO BOUND QMUNI3 -0.000697263
 UP BOUND QMUNI3      1.1e+10
 LO BOUND QMUNI4 -0.000284386
 UP BOUND QMUNI4      1.1e+10
 LO BOUND QMUNI5 -0.000509413
 UP BOUND QMUNI5      1.1e+10
 LO BOUND QMUNI6 -0.0006638  
 UP BOUND QMUNI6      1.1e+10
 LO BOUND QMUNI7 -0.000334118
 UP BOUND QMUNI7      1.1e+10
 LO BOUND QMUNI8 -0.000449872
 UP BOUND QMUNI8      1.1e+10
 LO BOUND QMUNI9 -0.000508604
 UP BOUND QMUNI9      1.1e+10
ENDATA
